param n := 120;
param c := 10000
param : V : p w :=
   0	 367	 357
   1	 281	 271
   2	 382	 372
   3	 491	 481
   4	 261	 251
   5	 278	 268
   6	 439	 429
   7	 295	 285
   8	 296	 286
   9	 464	 454
  10	 267	 257
  11	 299	 289
  12	 408	 398
  13	 278	 268
  14	 344	 334
  15	 392	 382
  16	 274	 264
  17	 364	 354
  18	 437	 427
  19	 261	 251
  20	 332	 322
  21	 486	 476
  22	 261	 251
  23	 283	 273
  24	 374	 364
  25	 286	 276
  26	 370	 360
  27	 416	 406
  28	 300	 290
  29	 314	 304
  30	 361	 351
  31	 290	 280
  32	 379	 369
  33	 428	 418
  34	 280	 270
  35	 322	 312
  36	 385	 375
  37	 319	 309
  38	 326	 316
  39	 421	 411
  40	 298	 288
  41	 311	 301
  42	 434	 424
  43	 271	 261
  44	 325	 315
  45	 472	 462
  46	 267	 257
  47	 291	 281
  48	 421	 411
  49	 294	 284
  50	 315	 305
  51	 453	 443
  52	 278	 268
  53	 299	 289
  54	 380	 370
  55	 294	 284
  56	 356	 346
  57	 470	 460
  58	 261	 251
  59	 299	 289
  60	 407	 397
  61	 267	 257
  62	 356	 346
  63	 389	 379
  64	 306	 296
  65	 335	 325
  66	 457	 447
  67	 279	 269
  68	 294	 284
  69	 471	 461
  70	 269	 259
  71	 290	 280
  72	 504	 494
  73	 261	 251
  74	 265	 255
  75	 493	 483
  76	 260	 250
  77	 277	 267
  78	 485	 475
  79	 268	 258
  80	 277	 267
  81	 412	 402
  82	 287	 277
  83	 331	 321
  84	 405	 395
  85	 279	 269
  86	 346	 336
  87	 446	 436
  88	 265	 255
  89	 319	 309
  90	 428	 418
  91	 295	 285
  92	 307	 297
  93	 418	 408
  94	 276	 266
  95	 336	 326
  96	 368	 358
  97	 274	 264
  98	 388	 378
  99	 481	 471
 100	 271	 261
 101	 278	 268
 102	 470	 460
 103	 260	 250
 104	 300	 290
 105	 378	 368
 106	 325	 315
 107	 327	 317
 108	 440	 430
 109	 279	 269
 110	 311	 301
 111	 487	 477
 112	 262	 252
 113	 281	 271
 114	 459	 449
 115	 273	 263
 116	 298	 288
 117	 493	 483
 118	 264	 254
 119	 273	 263
;

set E :=
   0	   1
   0	   3
   0	   4
   0	   6
   0	   7
   0	  10
   0	  11
   0	  18
   0	  20
   0	  21
   0	  23
   0	  24
   0	  25
   0	  26
   0	  27
   0	  28
   0	  30
   0	  31
   0	  34
   0	  37
   0	  38
   0	  39
   0	  43
   0	  47
   0	  50
   0	  53
   0	  58
   0	  68
   0	  71
   0	  78
   0	  79
   0	  80
   0	  82
   0	  83
   0	  85
   0	  87
   0	  89
   0	  91
   0	  95
   0	  99
   0	 101
   0	 108
   0	 109
   0	 116
   0	 117
   1	   2
   1	   4
   1	   5
   1	   7
   1	  10
   1	  13
   1	  14
   1	  23
   1	  27
   1	  28
   1	  36
   1	  39
   1	  40
   1	  42
   1	  45
   1	  50
   1	  53
   1	  55
   1	  60
   1	  62
   1	  63
   1	  66
   1	  67
   1	  68
   1	  69
   1	  70
   1	  74
   1	  82
   1	  83
   1	  84
   1	  85
   1	  86
   1	  88
   1	  89
   1	  90
   1	  93
   1	  99
   1	 113
   1	 115
   2	   4
   2	   6
   2	   7
   2	   8
   2	  11
   2	  12
   2	  15
   2	  16
   2	  20
   2	  21
   2	  23
   2	  28
   2	  29
   2	  30
   2	  34
   2	  44
   2	  51
   2	  52
   2	  57
   2	  70
   2	  75
   2	  81
   2	  85
   2	  87
   2	  88
   2	  90
   2	  97
   2	 100
   2	 103
   2	 110
   2	 111
   2	 112
   2	 113
   2	 115
   2	 118
   3	  11
   3	  14
   3	  16
   3	  24
   3	  29
   3	  33
   3	  37
   3	  38
   3	  39
   3	  43
   3	  47
   3	  48
   3	  54
   3	  57
   3	  60
   3	  63
   3	  64
   3	  68
   3	  70
   3	  71
   3	  76
   3	  77
   3	  82
   3	  84
   3	  91
   3	  92
   3	  93
   3	  95
   3	  96
   3	 100
   3	 102
   3	 103
   3	 105
   3	 114
   4	   5
   4	   6
   4	   8
   4	  10
   4	  11
   4	  13
   4	  14
   4	  16
   4	  22
   4	  25
   4	  26
   4	  31
   4	  34
   4	  35
   4	  37
   4	  45
   4	  47
   4	  54
   4	  55
   4	  57
   4	  59
   4	  62
   4	  68
   4	  71
   4	  72
   4	  81
   4	  83
   4	  87
   4	  94
   4	  95
   4	  97
   4	 103
   4	 104
   4	 105
   4	 109
   4	 110
   4	 112
   4	 114
   4	 116
   5	  11
   5	  14
   5	  15
   5	  25
   5	  28
   5	  31
   5	  32
   5	  36
   5	  39
   5	  44
   5	  52
   5	  57
   5	  60
   5	  67
   5	  72
   5	  73
   5	  75
   5	  76
   5	  78
   5	  79
   5	  81
   5	  84
   5	  87
   5	  88
   5	  92
   5	  97
   5	 100
   5	 102
   5	 104
   5	 109
   5	 112
   5	 114
   6	   9
   6	  19
   6	  21
   6	  23
   6	  25
   6	  27
   6	  28
   6	  31
   6	  35
   6	  39
   6	  42
   6	  43
   6	  47
   6	  49
   6	  53
   6	  55
   6	  60
   6	  65
   6	  70
   6	  71
   6	  76
   6	  85
   6	  88
   6	  89
   6	  90
   6	  96
   6	  98
   6	 103
   6	 105
   6	 106
   6	 108
   6	 110
   6	 111
   6	 113
   6	 116
   6	 117
   7	  11
   7	  13
   7	  14
   7	  21
   7	  29
   7	  34
   7	  36
   7	  42
   7	  45
   7	  55
   7	  57
   7	  62
   7	  63
   7	  65
   7	  66
   7	  67
   7	  70
   7	  72
   7	  73
   7	  74
   7	  79
   7	  83
   7	  94
   7	  95
   7	 100
   7	 103
   7	 105
   7	 107
   7	 111
   7	 112
   7	 119
   8	  11
   8	  15
   8	  18
   8	  24
   8	  26
   8	  27
   8	  30
   8	  31
   8	  34
   8	  38
   8	  44
   8	  45
   8	  52
   8	  54
   8	  55
   8	  64
   8	  67
   8	  70
   8	  71
   8	  75
   8	  78
   8	  80
   8	  85
   8	  88
   8	  90
   8	  96
   8	  98
   8	  99
   8	 103
   8	 106
   8	 108
   8	 109
   8	 114
   8	 117
   8	 119
   9	  13
   9	  20
   9	  23
   9	  24
   9	  28
   9	  32
   9	  37
   9	  42
   9	  44
   9	  45
   9	  50
   9	  53
   9	  60
   9	  61
   9	  63
   9	  64
   9	  66
   9	  68
   9	  69
   9	  71
   9	  78
   9	  80
   9	  82
   9	  85
   9	  90
   9	  92
   9	  94
   9	 102
   9	 106
   9	 117
   9	 119
  10	  12
  10	  18
  10	  19
  10	  20
  10	  27
  10	  28
  10	  30
  10	  36
  10	  37
  10	  39
  10	  43
  10	  46
  10	  48
  10	  55
  10	  59
  10	  65
  10	  72
  10	  81
  10	  82
  10	  83
  10	  84
  10	  85
  10	  87
  10	  92
  10	  94
  10	  95
  10	  97
  10	  98
  10	 101
  10	 104
  10	 105
  10	 107
  10	 108
  10	 111
  10	 116
  10	 119
  11	  13
  11	  14
  11	  18
  11	  19
  11	  25
  11	  26
  11	  29
  11	  35
  11	  36
  11	  38
  11	  40
  11	  43
  11	  44
  11	  48
  11	  57
  11	  61
  11	  63
  11	  66
  11	  70
  11	  75
  11	  77
  11	  81
  11	  83
  11	  86
  11	  87
  11	  90
  11	  91
  11	  93
  11	  96
  11	  97
  11	 105
  11	 116
  12	  13
  12	  19
  12	  21
  12	  24
  12	  25
  12	  31
  12	  35
  12	  39
  12	  44
  12	  45
  12	  49
  12	  50
  12	  51
  12	  54
  12	  59
  12	  60
  12	  64
  12	  65
  12	  68
  12	  69
  12	  76
  12	  78
  12	  83
  12	  84
  12	  85
  12	  87
  12	  88
  12	  89
  12	  93
  12	  98
  12	 101
  12	 107
  12	 111
  12	 112
  12	 113
  12	 119
  13	  19
  13	  32
  13	  34
  13	  38
  13	  39
  13	  42
  13	  43
  13	  47
  13	  48
  13	  55
  13	  57
  13	  58
  13	  60
  13	  65
  13	  71
  13	  72
  13	  74
  13	  78
  13	  79
  13	  82
  13	  85
  13	  86
  13	  90
  13	  93
  13	  94
  13	  97
  13	  99
  13	 103
  13	 108
  13	 111
  13	 118
  14	  17
  14	  19
  14	  22
  14	  25
  14	  29
  14	  32
  14	  33
  14	  37
  14	  39
  14	  41
  14	  47
  14	  48
  14	  51
  14	  54
  14	  56
  14	  59
  14	  60
  14	  64
  14	  66
  14	  67
  14	  76
  14	  83
  14	  85
  14	  87
  14	  92
  14	  99
  14	 104
  14	 105
  14	 109
  14	 112
  14	 117
  14	 118
  15	  18
  15	  22
  15	  24
  15	  28
  15	  32
  15	  33
  15	  36
  15	  39
  15	  45
  15	  53
  15	  54
  15	  56
  15	  59
  15	  65
  15	  66
  15	  70
  15	  73
  15	  80
  15	  81
  15	  88
  15	  97
  15	  99
  15	 106
  15	 110
  15	 113
  15	 115
  16	  17
  16	  18
  16	  24
  16	  25
  16	  28
  16	  30
  16	  31
  16	  33
  16	  34
  16	  44
  16	  45
  16	  47
  16	  50
  16	  56
  16	  63
  16	  64
  16	  72
  16	  82
  16	  85
  16	  90
  16	  91
  16	  95
  16	  98
  16	  99
  16	 102
  16	 103
  16	 105
  16	 108
  16	 117
  17	  22
  17	  23
  17	  26
  17	  27
  17	  29
  17	  30
  17	  33
  17	  36
  17	  38
  17	  40
  17	  42
  17	  45
  17	  49
  17	  53
  17	  62
  17	  63
  17	  66
  17	  68
  17	  73
  17	  74
  17	  79
  17	  80
  17	  82
  17	  86
  17	  87
  17	  89
  17	  91
  17	 103
  17	 105
  17	 108
  17	 113
  17	 116
  17	 119
  18	  22
  18	  24
  18	  27
  18	  37
  18	  38
  18	  39
  18	  41
  18	  43
  18	  46
  18	  51
  18	  52
  18	  53
  18	  54
  18	  57
  18	  59
  18	  65
  18	  66
  18	  67
  18	  68
  18	  75
  18	  77
  18	  78
  18	  80
  18	  84
  18	  88
  18	  92
  18	 100
  18	 101
  18	 108
  18	 109
  18	 117
  19	  20
  19	  21
  19	  23
  19	  24
  19	  25
  19	  29
  19	  31
  19	  41
  19	  42
  19	  43
  19	  49
  19	  55
  19	  58
  19	  63
  19	  67
  19	  71
  19	  73
  19	  77
  19	  81
  19	  95
  19	 104
  19	 108
  19	 109
  19	 112
  19	 113
  19	 117
  19	 118
  20	  28
  20	  29
  20	  34
  20	  36
  20	  43
  20	  45
  20	  47
  20	  48
  20	  54
  20	  56
  20	  58
  20	  62
  20	  63
  20	  64
  20	  65
  20	  68
  20	  69
  20	  76
  20	  78
  20	  79
  20	  93
  20	  99
  20	 102
  20	 106
  20	 108
  20	 113
  20	 114
  20	 115
  20	 117
  21	  25
  21	  27
  21	  29
  21	  31
  21	  32
  21	  39
  21	  44
  21	  49
  21	  50
  21	  52
  21	  55
  21	  56
  21	  59
  21	  60
  21	  62
  21	  63
  21	  66
  21	  67
  21	  68
  21	  71
  21	  75
  21	  79
  21	  81
  21	  82
  21	  84
  21	  85
  21	  89
  21	  90
  21	  96
  21	  97
  21	 104
  21	 111
  21	 112
  21	 113
  21	 114
  21	 117
  22	  30
  22	  33
  22	  35
  22	  38
  22	  41
  22	  49
  22	  52
  22	  56
  22	  57
  22	  59
  22	  61
  22	  62
  22	  69
  22	  74
  22	  78
  22	  86
  22	  90
  22	  95
  22	  96
  22	  97
  22	  99
  22	 101
  22	 104
  22	 107
  22	 108
  22	 110
  22	 114
  22	 115
  22	 117
  22	 118
  23	  24
  23	  27
  23	  31
  23	  35
  23	  37
  23	  40
  23	  54
  23	  58
  23	  63
  23	  66
  23	  69
  23	  70
  23	  73
  23	  75
  23	  77
  23	  78
  23	  79
  23	  85
  23	  90
  23	  96
  23	 101
  23	 102
  23	 116
  23	 117
  24	  27
  24	  29
  24	  31
  24	  37
  24	  39
  24	  43
  24	  49
  24	  51
  24	  53
  24	  54
  24	  55
  24	  56
  24	  67
  24	  74
  24	  78
  24	  79
  24	  81
  24	  83
  24	  85
  24	  88
  24	  93
  24	  94
  24	 100
  24	 102
  24	 103
  24	 104
  24	 112
  24	 114
  25	  27
  25	  28
  25	  33
  25	  36
  25	  40
  25	  53
  25	  54
  25	  56
  25	  57
  25	  64
  25	  66
  25	  72
  25	  73
  25	  74
  25	  82
  25	  92
  25	  93
  25	  94
  25	  97
  25	  99
  25	 105
  25	 106
  25	 107
  25	 108
  25	 112
  25	 114
  25	 117
  26	  28
  26	  32
  26	  34
  26	  39
  26	  41
  26	  47
  26	  48
  26	  61
  26	  73
  26	  78
  26	  86
  26	  88
  26	  95
  26	  96
  26	 101
  26	 106
  26	 110
  26	 111
  26	 116
  26	 118
  26	 119
  27	  28
  27	  30
  27	  35
  27	  37
  27	  40
  27	  42
  27	  43
  27	  45
  27	  48
  27	  49
  27	  51
  27	  60
  27	  72
  27	  73
  27	  74
  27	  76
  27	  77
  27	  81
  27	  87
  27	  88
  27	  89
  27	  90
  27	  93
  27	  94
  27	  96
  27	  99
  27	 100
  27	 101
  27	 103
  27	 104
  27	 106
  27	 107
  27	 108
  27	 111
  27	 115
  27	 117
  28	  30
  28	  35
  28	  43
  28	  45
  28	  46
  28	  48
  28	  52
  28	  54
  28	  59
  28	  61
  28	  67
  28	  69
  28	  73
  28	  75
  28	  79
  28	  86
  28	  93
  28	  99
  28	 102
  28	 103
  28	 110
  28	 113
  28	 116
  29	  32
  29	  34
  29	  35
  29	  36
  29	  39
  29	  41
  29	  47
  29	  49
  29	  52
  29	  58
  29	  68
  29	  72
  29	  75
  29	  82
  29	  83
  29	  84
  29	  91
  29	  92
  29	  94
  29	  96
  29	 104
  29	 106
  29	 108
  29	 118
  29	 119
  30	  34
  30	  41
  30	  47
  30	  49
  30	  53
  30	  58
  30	  59
  30	  60
  30	  65
  30	  67
  30	  76
  30	  80
  30	  81
  30	  82
  30	  85
  30	  87
  30	  96
  30	 101
  30	 103
  31	  34
  31	  35
  31	  37
  31	  46
  31	  52
  31	  53
  31	  56
  31	  65
  31	  71
  31	  76
  31	  80
  31	  83
  31	  86
  31	  94
  31	  97
  31	 103
  31	 108
  31	 109
  31	 112
  31	 116
  31	 119
  32	  36
  32	  38
  32	  39
  32	  45
  32	  46
  32	  51
  32	  57
  32	  59
  32	  60
  32	  66
  32	  71
  32	  73
  32	  76
  32	  77
  32	  88
  32	  89
  32	  90
  32	  91
  32	  93
  32	  95
  32	 102
  32	 105
  32	 107
  32	 115
  32	 117
  33	  37
  33	  42
  33	  45
  33	  50
  33	  58
  33	  61
  33	  63
  33	  64
  33	  66
  33	  67
  33	  68
  33	  69
  33	  71
  33	  78
  33	  84
  33	  91
  33	  92
  33	 100
  33	 104
  33	 105
  33	 106
  33	 108
  33	 111
  33	 115
  33	 116
  34	  39
  34	  41
  34	  42
  34	  45
  34	  46
  34	  50
  34	  56
  34	  59
  34	  61
  34	  62
  34	  65
  34	  71
  34	  72
  34	  75
  34	  77
  34	  78
  34	  81
  34	  82
  34	  84
  34	  93
  34	  96
  34	  99
  34	 104
  34	 115
  35	  38
  35	  40
  35	  46
  35	  47
  35	  48
  35	  52
  35	  53
  35	  55
  35	  68
  35	  71
  35	  74
  35	  78
  35	  79
  35	  80
  35	  82
  35	  84
  35	  92
  35	  95
  35	  96
  35	 105
  35	 106
  35	 107
  35	 112
  35	 116
  36	  37
  36	  43
  36	  44
  36	  45
  36	  47
  36	  52
  36	  64
  36	  79
  36	  82
  36	  91
  36	  92
  36	  95
  36	  98
  36	 100
  36	 104
  36	 106
  36	 109
  36	 110
  36	 113
  36	 114
  36	 115
  36	 116
  37	  40
  37	  42
  37	  46
  37	  48
  37	  50
  37	  51
  37	  56
  37	  57
  37	  60
  37	  61
  37	  65
  37	  72
  37	  75
  37	  78
  37	  80
  37	  86
  37	  88
  37	  90
  37	  91
  37	  92
  37	  93
  37	 103
  37	 107
  37	 108
  37	 109
  37	 110
  37	 112
  37	 113
  37	 118
  38	  41
  38	  46
  38	  48
  38	  57
  38	  64
  38	  65
  38	  66
  38	  68
  38	  71
  38	  76
  38	  80
  38	  84
  38	  85
  38	  88
  38	  90
  38	  93
  38	  94
  38	  97
  38	 100
  38	 109
  38	 111
  38	 112
  39	  40
  39	  43
  39	  44
  39	  45
  39	  55
  39	  56
  39	  57
  39	  62
  39	  65
  39	  68
  39	  69
  39	  70
  39	  72
  39	  76
  39	  78
  39	  79
  39	  80
  39	  82
  39	  87
  39	  88
  39	  89
  39	  90
  39	  91
  39	  93
  39	  95
  39	  96
  39	  97
  39	 105
  39	 107
  39	 108
  39	 109
  39	 110
  39	 119
  40	  41
  40	  44
  40	  50
  40	  58
  40	  62
  40	  65
  40	  67
  40	  68
  40	  71
  40	  75
  40	  77
  40	  78
  40	  87
  40	 105
  40	 107
  40	 109
  40	 113
  40	 116
  41	  42
  41	  45
  41	  46
  41	  53
  41	  58
  41	  59
  41	  69
  41	  72
  41	  73
  41	  74
  41	  75
  41	  77
  41	  80
  41	  83
  41	  84
  41	  90
  41	  92
  41	 104
  41	 108
  41	 112
  41	 115
  41	 118
  42	  46
  42	  48
  42	  52
  42	  55
  42	  59
  42	  60
  42	  64
  42	  65
  42	  69
  42	  71
  42	  73
  42	  79
  42	  80
  42	  84
  42	  88
  42	  89
  42	  93
  42	  95
  42	  96
  42	 106
  42	 107
  42	 113
  42	 115
  42	 117
  42	 118
  42	 119
  43	  45
  43	  51
  43	  54
  43	  55
  43	  58
  43	  59
  43	  61
  43	  72
  43	  75
  43	  76
  43	  77
  43	  78
  43	  81
  43	  83
  43	  86
  43	  89
  43	  92
  43	  95
  43	  96
  43	  98
  43	 102
  43	 103
  43	 104
  43	 108
  43	 110
  43	 112
  43	 116
  43	 117
  43	 118
  44	  52
  44	  55
  44	  59
  44	  60
  44	  62
  44	  69
  44	  75
  44	  78
  44	  80
  44	  81
  44	  90
  44	  99
  44	 101
  44	 105
  44	 107
  44	 109
  44	 111
  44	 115
  45	  47
  45	  50
  45	  53
  45	  63
  45	  71
  45	  75
  45	  80
  45	  83
  45	  88
  45	  89
  45	  91
  45	  99
  45	 106
  45	 109
  45	 116
  45	 118
  45	 119
  46	  47
  46	  48
  46	  56
  46	  57
  46	  60
  46	  61
  46	  63
  46	  71
  46	  77
  46	  79
  46	  81
  46	  90
  46	  92
  46	  93
  46	 104
  46	 110
  46	 114
  46	 115
  46	 117
  46	 119
  47	  54
  47	  56
  47	  60
  47	  62
  47	  63
  47	  65
  47	  66
  47	  70
  47	  79
  47	  83
  47	  87
  47	  94
  47	  96
  47	  97
  47	  98
  47	  99
  47	 105
  47	 112
  47	 113
  47	 115
  48	  57
  48	  63
  48	  66
  48	  69
  48	  70
  48	  71
  48	  72
  48	  75
  48	  76
  48	  77
  48	  78
  48	  84
  48	  88
  48	  91
  48	  93
  48	  99
  48	 100
  48	 101
  48	 104
  48	 105
  48	 107
  48	 108
  48	 112
  48	 113
  49	  51
  49	  55
  49	  56
  49	  61
  49	  67
  49	  74
  49	  77
  49	  79
  49	  80
  49	  86
  49	  88
  49	  90
  49	 100
  49	 103
  49	 108
  49	 110
  49	 117
  50	  52
  50	  67
  50	  68
  50	  69
  50	  70
  50	  71
  50	  72
  50	  77
  50	  78
  50	  83
  50	  86
  50	  90
  50	  93
  50	  97
  50	  98
  50	 104
  50	 106
  50	 109
  50	 110
  50	 111
  50	 112
  50	 118
  51	  60
  51	  64
  51	  70
  51	  74
  51	  76
  51	  82
  51	  86
  51	  88
  51	  89
  51	  94
  51	  97
  51	 108
  51	 116
  51	 118
  52	  55
  52	  56
  52	  58
  52	  59
  52	  60
  52	  64
  52	  65
  52	  67
  52	  71
  52	  72
  52	  76
  52	  84
  52	  89
  52	  93
  52	  95
  52	  98
  52	 100
  52	 102
  52	 111
  52	 115
  52	 117
  52	 118
  53	  54
  53	  60
  53	  61
  53	  65
  53	  66
  53	  68
  53	  69
  53	  73
  53	  81
  53	  84
  53	  85
  53	  86
  53	  88
  53	  89
  53	  91
  53	  94
  53	  96
  53	  97
  53	  98
  53	 107
  53	 109
  53	 111
  53	 117
  54	  60
  54	  61
  54	  69
  54	  74
  54	  76
  54	  78
  54	  81
  54	  86
  54	  88
  54	  90
  54	  92
  54	  96
  54	  98
  54	  99
  54	 103
  54	 105
  54	 109
  54	 110
  54	 112
  54	 113
  54	 115
  54	 116
  54	 118
  54	 119
  55	  56
  55	  67
  55	  68
  55	  71
  55	  73
  55	  77
  55	  78
  55	  80
  55	  84
  55	  85
  55	  86
  55	  87
  55	  88
  55	  90
  55	  93
  55	  97
  55	 104
  55	 107
  55	 111
  56	  68
  56	  69
  56	  70
  56	  72
  56	  73
  56	  78
  56	  79
  56	  84
  56	  88
  56	  90
  56	  92
  56	  95
  56	  96
  56	  97
  56	  98
  56	  99
  56	 102
  56	 105
  56	 107
  56	 109
  56	 110
  56	 112
  56	 116
  56	 118
  57	  59
  57	  62
  57	  76
  57	  77
  57	  84
  57	  85
  57	  87
  57	  96
  57	 101
  57	 103
  57	 104
  57	 109
  57	 111
  57	 112
  57	 114
  58	  59
  58	  62
  58	  67
  58	  69
  58	  70
  58	  72
  58	  73
  58	  79
  58	  80
  58	  85
  58	  86
  58	  93
  58	  94
  58	  95
  58	  98
  58	 103
  58	 104
  58	 112
  58	 114
  59	  61
  59	  73
  59	  80
  59	  83
  59	  87
  59	  90
  59	  91
  59	  94
  59	  95
  59	  97
  59	  98
  59	  99
  59	 110
  59	 114
  59	 119
  60	  62
  60	  63
  60	  64
  60	  66
  60	  67
  60	  75
  60	  77
  60	  80
  60	  81
  60	  82
  60	  87
  60	  88
  60	  91
  60	  98
  60	 100
  60	 102
  60	 104
  60	 113
  61	  62
  61	  64
  61	  68
  61	  70
  61	  71
  61	  74
  61	  77
  61	  79
  61	  85
  61	  88
  61	  90
  61	  91
  61	  92
  61	  93
  61	  95
  61	  96
  61	 112
  61	 116
  61	 117
  61	 119
  62	  77
  62	  85
  62	  86
  62	  89
  62	  98
  62	 101
  62	 103
  62	 105
  62	 106
  62	 108
  62	 113
  62	 119
  63	  71
  63	  79
  63	  80
  63	  84
  63	  88
  63	  90
  63	  92
  63	  97
  63	  99
  63	 100
  63	 102
  63	 105
  63	 108
  63	 110
  63	 118
  64	  68
  64	  70
  64	  71
  64	  72
  64	  74
  64	  76
  64	  77
  64	  80
  64	  96
  64	  97
  64	  99
  64	 100
  64	 104
  64	 106
  64	 108
  64	 110
  64	 113
  64	 117
  65	  67
  65	  69
  65	  70
  65	  71
  65	  72
  65	  75
  65	  77
  65	  78
  65	  83
  65	  84
  65	  86
  65	  87
  65	  89
  65	  90
  65	  91
  65	 100
  65	 101
  65	 104
  65	 105
  65	 107
  65	 110
  65	 112
  65	 117
  65	 119
  66	  67
  66	  68
  66	  69
  66	  73
  66	  75
  66	  79
  66	  81
  66	  83
  66	  87
  66	  89
  66	  91
  66	  92
  66	  95
  66	  96
  66	 101
  66	 105
  66	 108
  66	 112
  67	  70
  67	  73
  67	  74
  67	  75
  67	  81
  67	  82
  67	  83
  67	  84
  67	  86
  67	  87
  67	  89
  67	  91
  67	  92
  67	  93
  67	  94
  67	  96
  67	  99
  67	 101
  67	 103
  67	 108
  67	 118
  68	  70
  68	  75
  68	  84
  68	  86
  68	  88
  68	  93
  68	  97
  68	  99
  68	 105
  68	 109
  68	 112
  68	 113
  68	 116
  69	  70
  69	  74
  69	  75
  69	  76
  69	  83
  69	  89
  69	  96
  69	  98
  69	 101
  69	 102
  69	 107
  69	 112
  69	 114
  69	 117
  69	 119
  70	  77
  70	  80
  70	  85
  70	  90
  70	  92
  70	  93
  70	  97
  70	  98
  70	 101
  70	 102
  70	 103
  70	 106
  70	 107
  70	 111
  70	 113
  71	  73
  71	  75
  71	  76
  71	  77
  71	  79
  71	  84
  71	  85
  71	  86
  71	  90
  71	  91
  71	  99
  71	 103
  71	 104
  71	 114
  71	 118
  72	  74
  72	  76
  72	  79
  72	  80
  72	  85
  72	  86
  72	  88
  72	  89
  72	  91
  72	  92
  72	  96
  72	 102
  72	 103
  72	 104
  72	 105
  72	 109
  72	 110
  72	 115
  73	  75
  73	  80
  73	  81
  73	  82
  73	  88
  73	  89
  73	  90
  73	  93
  73	  95
  73	  97
  73	 100
  73	 103
  73	 107
  73	 108
  73	 111
  73	 115
  73	 117
  73	 118
  74	  76
  74	  78
  74	  80
  74	  81
  74	  82
  74	  83
  74	  86
  74	  87
  74	  89
  74	  90
  74	  92
  74	  96
  74	  98
  74	  99
  74	 100
  74	 105
  74	 106
  74	 107
  74	 109
  74	 110
  74	 111
  74	 113
  75	  80
  75	  81
  75	  85
  75	  89
  75	  92
  75	  96
  75	  99
  75	 101
  75	 102
  75	 104
  75	 105
  75	 111
  75	 112
  75	 113
  75	 115
  75	 116
  75	 117
  75	 118
  76	  77
  76	  80
  76	  83
  76	  84
  76	  90
  76	  95
  76	  96
  76	 104
  76	 107
  76	 112
  76	 113
  76	 114
  76	 116
  77	  79
  77	  94
  77	  95
  77	  97
  77	  99
  77	 102
  77	 103
  77	 105
  77	 114
  77	 117
  77	 119
  78	  84
  78	  85
  78	  87
  78	  90
  78	  91
  78	  92
  78	  94
  78	  98
  78	 101
  78	 106
  78	 109
  78	 111
  78	 112
  78	 114
  78	 115
  78	 119
  79	  80
  79	  87
  79	  88
  79	  91
  79	  92
  79	  95
  79	  99
  79	 104
  79	 111
  79	 113
  80	  83
  80	  85
  80	  86
  80	  89
  80	  92
  80	  98
  80	 105
  80	 107
  80	 114
  80	 116
  81	  85
  81	  88
  81	  89
  81	  90
  81	  92
  81	  95
  81	  99
  81	 105
  81	 107
  81	 108
  81	 112
  81	 116
  81	 118
  82	  83
  82	  86
  82	  87
  82	  90
  82	  96
  82	  98
  82	 102
  82	 103
  82	 107
  82	 108
  82	 109
  82	 113
  82	 116
  82	 118
  82	 119
  83	  85
  83	  87
  83	  89
  83	  93
  83	  95
  83	  96
  83	  97
  83	  98
  83	 101
  83	 104
  83	 106
  83	 111
  83	 115
  84	  88
  84	  96
  84	 104
  84	 108
  84	 109
  84	 110
  84	 111
  84	 112
  84	 113
  84	 117
  84	 119
  85	  88
  85	  89
  85	  91
  85	  92
  85	  94
  85	  97
  85	  98
  85	  99
  85	 106
  85	 114
  86	  88
  86	  89
  86	  90
  86	  97
  86	 103
  86	 104
  86	 106
  86	 111
  86	 112
  86	 115
  86	 118
  86	 119
  87	  88
  87	  91
  87	 101
  87	 105
  87	 110
  87	 114
  87	 116
  87	 117
  88	  91
  88	  92
  88	  94
  88	  95
  88	 100
  88	 102
  88	 104
  88	 105
  88	 109
  88	 110
  88	 111
  88	 116
  88	 119
  89	  91
  89	  94
  89	  96
  89	 102
  89	 103
  89	 104
  89	 106
  89	 111
  89	 113
  89	 119
  90	  93
  90	  95
  90	  96
  90	  97
  90	 101
  90	 104
  90	 106
  90	 111
  90	 112
  91	  99
  91	 103
  91	 105
  91	 115
  91	 117
  92	  95
  92	  96
  92	  99
  92	 107
  92	 114
  93	  98
  93	 101
  93	 103
  93	 105
  93	 108
  93	 113
  93	 119
  94	  96
  94	  99
  94	 101
  94	 102
  94	 104
  95	  97
  95	  98
  95	 100
  95	 101
  95	 102
  95	 108
  95	 115
  95	 117
  95	 119
  96	 100
  96	 101
  96	 102
  96	 103
  96	 108
  96	 109
  96	 113
  96	 117
  97	  98
  97	  99
  97	 108
  97	 109
  97	 113
  97	 118
  98	 112
  98	 117
  99	 101
  99	 104
  99	 106
  99	 107
  99	 114
  99	 118
 100	 101
 100	 104
 100	 111
 100	 112
 100	 113
 100	 116
 101	 103
 101	 104
 101	 109
 101	 110
 101	 112
 101	 118
 102	 103
 102	 105
 102	 110
 102	 111
 102	 112
 102	 114
 102	 119
 103	 104
 103	 110
 103	 114
 103	 117
 103	 119
 104	 105
 104	 117
 105	 110
 106	 108
 106	 112
 106	 114
 106	 116
 106	 119
 107	 110
 107	 113
 107	 114
 107	 115
 108	 109
 108	 113
 108	 115
 108	 118
 109	 114
 110	 114
 110	 117
 111	 113
 111	 115
 112	 118
 113	 115
 113	 116
 113	 118
 113	 119
 116	 117
 116	 118
;
